NPROCS=0
This instance is clustered!
Gurobi Optimizer version 9.0.0 build v9.0.0rc2 (linux64)
Optimize a model with 22 rows, 122 columns and 242 nonzeros
Model fingerprint: 0x615a81b9
Variable types: 1 continuous, 121 integer (121 binary)
Coefficient statistics:
  Matrix range     [1e+00, 1e+00]
  Objective range  [1e+00, 9e+01]
  Bounds range     [1e+00, 1e+00]
  RHS range        [1e+00, 1e+00]
Presolve removed 2 rows and 30 columns
Presolve time: 0.00s
Presolved: 20 rows, 92 columns, 182 nonzeros
Variable types: 1 continuous, 91 integer (91 binary)

Root relaxation: objective 1.040973e+02, 17 iterations, 0.00 seconds

    Nodes    |    Current Node    |     Objective Bounds      |     Work
 Expl Unexpl |  Obj  Depth IntInf | Incumbent    BestBd   Gap | It/Node Time

     0     0  164.09318    0    6          -  164.09318      -     -    0s
H    0     0                     199.0190984  164.09318  17.5%     -    0s
     0     0  164.40929    0   12  199.01910  164.40929  17.4%     -    0s
     0     0  164.40929    0   12  199.01910  164.40929  17.4%     -    0s
     0     2  164.40929    0   12  199.01910  164.40929  17.4%     -    0s

Cutting planes:
  Gomory: 1
  Lazy constraints: 324

Explored 964 nodes (3010 simplex iterations) in 0.14 seconds
Thread count was 12 (of 12 available processors)

Solution count 1: 199.019 

Optimal solution found (tolerance 1.00e-04)
Best objective 1.990190984184e+02, best bound 1.990190984184e+02, gap 0.0000%

User-callback calls 2375, time in user-callback 0.02 sec
/projects/academic/josewalt/caigao/RRARP_BD/BendersDecomp/ret/model_outs/n_9_h_6_algo_2.out
 =====>>>>> Solution is written to file in <../ret/model_outs> !!!
===>> All Done!
